c 1 root
c 2 __SELECTED_FEATURE_line_12
c 3 __SELECTED_FEATURE_mutant_5
c 4 __SELECTED_FEATURE_mutant_4
c 5 __SELECTED_FEATURE_line_16
c 6 __SELECTED_FEATURE_mutant_1
c 7 __SELECTED_FEATURE_mutant_3
c 8 __SELECTED_FEATURE_line_15
c 9 __SELECTED_FEATURE_mutant_2
p cnf 9 15
1 0
-2 1 0
-3 2 0
-4 2 0
-2 3 4 0
-4 -3 0
-5 1 0
-6 5 0
-7 5 0
-5 6 7 0
-7 -6 0
-8 1 0
-9 8 0
-8 9 0
-1 2 5 8 0
